clingo version 5.4.1
Reading from sokoban-new-2.lp
Solving...
UNSATISFIABLE

Models       : 0
Calls        : 1
Time         : 0.154s (Solving: 0.00s 1st Model: 0.00s Unsat: 0.00s)
CPU Time     : 0.151s
